
  22    4
  10   10   10   10

   0   0   0   0   0   9 2 3 4 6 7 8 11 12 21 
   7  10  10  10  10   3 20 17 9 
   7  10  10  10  10   2 18 5 
   5  10  10  10  10   5 19 18 17 14 10 
   3  10  10  10  10   3 17 13 10 
   3  10  10  10  10   3 19 13 10 
   6  10  10  10  10   3 20 19 10 
   2  10  10  10  10   3 18 14 10 
   7  10  10  10  10   2 13 10 
   4  10  10  10  10   2 16 15 
   9  10  10  10  10   2 17 14 
   3  10  10  10  10   2 17 14 
  10  10  10  10  10   1 14 
   2  10  10  10  10   1 22
   7  10  10  10  10   1 22
   8  10  10  10  10   1 22
   4  10  10  10  10   1 22
   5  10  10  10  10   1 22
  10  10  10  10  10   1 22
   3  10  10  10  10   1 22
   7  10  10  10  10   1 22
   0   0   0   0   0   0 
